WARNING: for repeatability, setting FPU to use double precision
============================[ Problem Statistics ]=============================
|                                                                             |
|  Number of variables:          1219                                         |
|  Number of clauses:            7300                                         |
|  Parse time:                   0.00 s                                       |
|                                                                             |
============================[ Search Statistics ]==============================
| Conflicts |          ORIGINAL         |          LEARNT          | Progress |
|           |    Vars  Clauses Literals |    Limit  Clauses Lit/Cl |          |
===============================================================================
|       100 |     874     7300    19382 |     2676       86      8 | 28.302 % |
===============================================================================
restarts              : 2
conflicts             : 133            (inf /sec)
decisions             : 896            (0.00 % random) (inf /sec)
propagations          : 16637          (inf /sec)
conflict literals     : 824            (19.29 % deleted)
Memory used           : 6.00 MB
CPU time              : 0 s

UNSATISFIABLE
